(set-logic QF_S)
(declare-fun var0 () String)
(assert (RegexIn var0 (RegexConcat (RegexUnion (RegexUnion (RegexStar (RegexUnion (RegexUnion (RegexPlus (RegexUnion (Str2Reg "00") (Str2Reg "1"))) (RegexPlus (RegexStar (Str2Reg "22")))) (RegexUnion (RegexStar (RegexStar (Str2Reg "3"))) (RegexStar (RegexStar (Str2Reg "444")))))) (RegexStar (RegexPlus (RegexStar (RegexUnion (RegexPlus (Str2Reg "55")) (RegexPlus (Str2Reg "66"))))))) (RegexUnion (RegexPlus (RegexStar (RegexStar (RegexStar (RegexUnion (Str2Reg "777") (Str2Reg "8")))))) (RegexPlus (RegexStar (RegexUnion (RegexUnion (RegexUnion (Str2Reg "99") (Str2Reg "aa")) (RegexUnion (Str2Reg "bbb") (Str2Reg "ccc"))) (RegexUnion (RegexPlus (Str2Reg "dd")) (RegexPlus (Str2Reg "e")))))))) (RegexUnion (RegexUnion (RegexPlus (RegexStar (RegexUnion (RegexStar (RegexUnion (Str2Reg "ff") (Str2Reg "g"))) (RegexStar (RegexUnion (Str2Reg "hh") (Str2Reg "ii")))))) (RegexPlus (RegexPlus (RegexPlus (RegexUnion (RegexPlus (Str2Reg "jjj")) (RegexPlus (Str2Reg "k"))))))) (RegexUnion (RegexUnion (RegexPlus (RegexPlus (RegexStar (RegexPlus (Str2Reg "lll"))))) (RegexPlus (RegexUnion (RegexStar (RegexPlus (Str2Reg "m"))) (RegexStar (RegexStar (Str2Reg "nnn")))))) (RegexUnion (RegexStar (RegexStar (RegexUnion (RegexStar (Str2Reg "o")) (RegexStar (Str2Reg "p"))))) (RegexStar (RegexStar (RegexStar (RegexUnion (Str2Reg "qq") (Str2Reg "rrr")))))))))))
(assert (<= 15 (Length var0)))
(check-sat)